50
21454

81 289
385 779
808 454
408 575
21 921
77 434
671 100
487 570
685 847
629 169
75 433
65 693
897 298
539 402
834 76
370 90
686 566
75 478
110 402
104 584
29 479
711 381
759 730
873 173
29 709
512 866
939 391
417 932
820 891
235 540
664 118
932 409
516 494
593 342
330 762
393 228
304 31
650 598
654 387
156 701
635 933
194 816
706 365
274 597
264 464
820 61
644 176
849 69
681 882
10 675
